NAME: cuum830.tsp
TYPE: TSP
COMMENT: User-generated TSP file
DIMENSION: 830
EDGE_WEIGHT_TYPE: EUC_2D
NODE_COORD_SECTION
1 310.0 284.0
2 25.0 526.0
3 820.0 486.0
4 828.0 591.0
5 421.0 119.0
6 323.0 773.0
7 663.0 484.0
8 73.0 418.0
9 629.0 265.0
10 691.0 673.0
11 108.0 689.0
12 822.0 687.0
13 101.0 779.0
14 258.0 342.0
15 380.0 239.0
16 318.0 737.0
17 240.0 373.0
18 665.0 270.0
19 418.0 386.0
20 368.0 793.0
21 494.0 271.0
22 209.0 756.0
23 532.0 637.0
24 229.0 335.0
25 489.0 254.0
26 297.0 320.0
27 273.0 603.0
28 726.0 607.0
29 679.0 599.0
30 665.0 127.0
31 78.0 630.0
32 146.0 272.0
33 819.0 643.0
34 367.0 134.0
35 455.0 700.0
36 148.0 552.0
37 707.0 563.0
38 413.0 170.0
39 533.0 499.0
40 362.0 671.0
41 277.0 529.0
42 451.0 554.0
43 635.0 379.0
44 133.0 758.0
45 509.0 188.0
46 141.0 92.0
47 78.0 374.0
48 478.0 34.0
49 527.0 188.0
50 666.0 806.0
51 43.0 123.0
52 132.0 743.0
53 163.0 796.0
54 684.0 158.0
55 537.0 584.0
56 444.0 672.0
57 581.0 459.0
58 259.0 332.0
59 828.0 450.0
60 768.0 480.0
61 536.0 448.0
62 130.0 522.0
63 371.0 420.0
64 180.0 299.0
65 808.0 323.0
66 774.0 563.0
67 420.0 696.0
68 537.0 294.0
69 444.0 830.0
70 670.0 717.0
71 827.0 319.0
72 589.0 450.0
73 658.0 635.0
74 415.0 589.0
75 401.0 562.0
76 519.0 222.0
77 38.0 514.0
78 258.0 821.0
79 272.0 222.0
80 197.0 322.0
81 614.0 767.0
82 202.0 673.0
83 760.0 44.0
84 41.0 26.0
85 300.0 663.0
86 692.0 753.0
87 548.0 142.0
88 287.0 55.0
89 444.0 187.0
90 774.0 501.0
91 825.0 441.0
92 633.0 173.0
93 418.0 200.0
94 829.0 119.0
95 632.0 771.0
96 637.0 35.0
97 65.0 592.0
98 249.0 590.0
99 802.0 20.0
100 345.0 381.0
101 658.0 371.0
102 193.0 42.0
103 247.0 300.0
104 191.0 499.0
105 380.0 331.0
106 715.0 157.0
107 693.0 138.0
108 380.0 407.0
109 699.0 88.0
110 753.0 820.0
111 274.0 385.0
112 812.0 798.0
113 562.0 160.0
114 289.0 649.0
115 329.0 397.0
116 281.0 256.0
117 480.0 551.0
118 655.0 403.0
119 698.0 54.0
120 567.0 300.0
121 64.0 396.0
122 514.0 816.0
123 462.0 537.0
124 104.0 508.0
125 578.0 517.0
126 225.0 306.0
127 332.0 650.0
128 111.0 759.0
129 140.0 228.0
130 64.0 713.0
131 347.0 809.0
132 520.0 768.0
133 123.0 664.0
134 706.0 255.0
135 686.0 591.0
136 730.0 395.0
137 219.0 643.0
138 596.0 765.0
139 412.0 69.0
140 562.0 6.0
141 782.0 693.0
142 774.0 169.0
143 2.0 338.0
144 724.0 257.0
145 458.0 593.0
146 218.0 37.0
147 539.0 34.0
148 455.0 508.0
149 78.0 507.0
150 67.0 330.0
151 630.0 704.0
152 216.0 623.0
153 476.0 209.0
154 444.0 122.0
155 778.0 449.0
156 3.0 224.0
157 781.0 774.0
158 830.0 814.0
159 565.0 575.0
160 784.0 607.0
161 482.0 249.0
162 518.0 216.0
163 441.0 614.0
164 276.0 364.0
165 458.0 615.0
166 6.0 462.0
167 198.0 737.0
168 758.0 438.0
169 355.0 694.0
170 487.0 680.0
171 528.0 352.0
172 624.0 468.0
173 379.0 425.0
174 764.0 756.0
175 353.0 69.0
176 232.0 175.0
177 227.0 25.0
178 39.0 377.0
179 526.0 459.0
180 824.0 728.0
181 194.0 664.0
182 117.0 646.0
183 799.0 413.0
184 545.0 594.0
185 212.0 11.0
186 779.0 416.0
187 340.0 152.0
188 816.0 813.0
189 822.0 299.0
190 469.0 740.0
191 683.0 566.0
192 693.0 78.0
193 218.0 773.0
194 396.0 567.0
195 123.0 225.0
196 98.0 593.0
197 524.0 183.0
198 164.0 203.0
199 648.0 84.0
200 727.0 625.0
201 31.0 682.0
202 284.0 524.0
203 624.0 679.0
204 271.0 63.0
205 596.0 299.0
206 537.0 38.0
207 736.0 260.0
208 724.0 143.0
209 762.0 726.0
210 254.0 66.0
211 603.0 172.0
212 670.0 327.0
213 630.0 623.0
214 128.0 563.0
215 607.0 615.0
216 396.0 626.0
217 775.0 343.0
218 636.0 431.0
219 105.0 69.0
220 420.0 581.0
221 294.0 129.0
222 534.0 131.0
223 811.0 236.0
224 278.0 471.0
225 647.0 824.0
226 556.0 422.0
227 486.0 218.0
228 627.0 135.0
229 22.0 85.0
230 460.0 607.0
231 634.0 394.0
232 404.0 448.0
233 443.0 199.0
234 444.0 190.0
235 268.0 448.0
236 495.0 101.0
237 397.0 163.0
238 56.0 179.0
239 628.0 307.0
240 499.0 294.0
241 768.0 722.0
242 252.0 616.0
243 402.0 292.0
244 210.0 345.0
245 79.0 173.0
246 617.0 62.0
247 237.0 671.0
248 510.0 234.0
249 712.0 456.0
250 798.0 312.0
251 133.0 661.0
252 282.0 320.0
253 525.0 53.0
254 360.0 685.0
255 243.0 119.0
256 279.0 309.0
257 623.0 622.0
258 239.0 55.0
259 708.0 764.0
260 83.0 723.0
261 422.0 567.0
262 271.0 252.0
263 191.0 307.0
264 373.0 359.0
265 270.0 271.0
266 9.0 362.0
267 356.0 609.0
268 528.0 101.0
269 384.0 528.0
270 573.0 520.0
271 742.0 753.0
272 505.0 289.0
273 64.0 217.0
274 646.0 332.0
275 248.0 789.0
276 392.0 799.0
277 203.0 312.0
278 66.0 813.0
279 121.0 398.0
280 609.0 725.0
281 823.0 135.0
282 80.0 193.0
283 525.0 388.0
284 189.0 718.0
285 537.0 609.0
286 739.0 615.0
287 382.0 654.0
288 82.0 784.0
289 378.0 581.0
290 218.0 677.0
291 158.0 778.0
292 277.0 672.0
293 163.0 416.0
294 370.0 292.0
295 39.0 381.0
296 332.0 407.0
297 45.0 200.0
298 520.0 209.0
299 425.0 588.0
300 496.0 496.0
301 745.0 792.0
302 302.0 164.0
303 93.0 56.0
304 473.0 40.0
305 651.0 63.0
306 129.0 381.0
307 212.0 574.0
308 330.0 706.0
309 28.0 76.0
310 666.0 783.0
311 171.0 828.0
312 754.0 514.0
313 254.0 39.0
314 306.0 733.0
315 500.0 810.0
316 808.0 156.0
317 99.0 763.0
318 656.0 788.0
319 779.0 590.0
320 350.0 582.0
321 706.0 269.0
322 703.0 784.0
323 409.0 595.0
324 597.0 164.0
325 420.0 109.0
326 824.0 247.0
327 804.0 76.0
328 829.0 116.0
329 583.0 167.0
330 56.0 631.0
331 60.0 261.0
332 576.0 606.0
333 491.0 391.0
334 751.0 791.0
335 711.0 196.0
336 178.0 548.0
337 29.0 92.0
338 690.0 268.0
339 421.0 635.0
340 800.0 635.0
341 309.0 247.0
342 424.0 638.0
343 574.0 469.0
344 595.0 396.0
345 129.0 713.0
346 376.0 583.0
347 769.0 722.0
348 204.0 744.0
349 774.0 638.0
350 508.0 134.0
351 269.0 88.0
352 330.0 263.0
353 165.0 287.0
354 824.0 643.0
355 237.0 155.0
356 791.0 191.0
357 778.0 798.0
358 379.0 236.0
359 24.0 241.0
360 550.0 475.0
361 403.0 16.0
362 529.0 286.0
363 345.0 397.0
364 412.0 310.0
365 821.0 443.0
366 574.0 522.0
367 279.0 509.0
368 686.0 304.0
369 772.0 401.0
370 632.0 770.0
371 638.0 460.0
372 666.0 805.0
373 815.0 507.0
374 668.0 319.0
375 444.0 776.0
376 237.0 475.0
377 437.0 507.0
378 608.0 802.0
379 681.0 222.0
380 38.0 734.0
381 469.0 262.0
382 24.0 194.0
383 582.0 519.0
384 700.0 580.0
385 347.0 692.0
386 804.0 46.0
387 404.0 156.0
388 553.0 208.0
389 132.0 223.0
390 810.0 213.0
391 747.0 311.0
392 359.0 167.0
393 528.0 250.0
394 23.0 784.0
395 366.0 313.0
396 535.0 518.0
397 7.0 258.0
398 670.0 332.0
399 787.0 370.0
400 146.0 270.0
401 317.0 320.0
402 677.0 712.0
403 227.0 182.0
404 822.0 29.0
405 591.0 597.0
406 675.0 633.0
407 382.0 774.0
408 421.0 600.0
409 573.0 680.0
410 42.0 701.0
411 446.0 476.0
412 352.0 74.0
413 587.0 183.0
414 701.0 626.0
415 253.0 517.0
416 645.0 235.0
417 556.0 28.0
418 170.0 787.0
419 26.0 127.0
420 523.0 671.0
421 433.0 174.0
422 77.0 144.0
423 293.0 533.0
424 457.0 617.0
425 654.0 309.0
426 591.0 504.0
427 746.0 792.0
428 271.0 266.0
429 742.0 593.0
430 733.0 483.0
431 639.0 194.0
432 156.0 118.0
433 351.0 582.0
434 180.0 175.0
435 520.0 193.0
436 742.0 553.0
437 186.0 540.0
438 742.0 552.0
439 445.0 600.0
440 118.0 547.0
441 601.0 175.0
442 496.0 135.0
443 49.0 462.0
444 573.0 115.0
445 515.0 601.0
446 260.0 117.0
447 724.0 383.0
448 295.0 780.0
449 681.0 155.0
450 215.0 818.0
451 798.0 231.0
452 530.0 482.0
453 179.0 756.0
454 189.0 788.0
455 802.0 262.0
456 160.0 51.0
457 529.0 169.0
458 16.0 443.0
459 486.0 272.0
460 125.0 373.0
461 805.0 281.0
462 266.0 535.0
463 251.0 778.0
464 270.0 334.0
465 96.0 2.0
466 245.0 557.0
467 474.0 571.0
468 5.0 705.0
469 629.0 782.0
470 804.0 420.0
471 161.0 749.0
472 12.0 621.0
473 573.0 627.0
474 288.0 332.0
475 312.0 161.0
476 252.0 351.0
477 712.0 760.0
478 596.0 98.0
479 688.0 293.0
480 800.0 315.0
481 274.0 666.0
482 650.0 813.0
483 354.0 304.0
484 675.0 668.0
485 729.0 299.0
486 674.0 65.0
487 504.0 767.0
488 661.0 519.0
489 725.0 178.0
490 132.0 82.0
491 174.0 723.0
492 76.0 161.0
493 124.0 437.0
494 583.0 823.0
495 647.0 400.0
496 251.0 141.0
497 435.0 119.0
498 42.0 249.0
499 564.0 773.0
500 259.0 78.0
501 147.0 53.0
502 239.0 315.0
503 564.0 788.0
504 523.0 769.0
505 470.0 750.0
506 545.0 364.0
507 300.0 273.0
508 134.0 694.0
509 639.0 327.0
510 703.0 551.0
511 124.0 440.0
512 102.0 404.0
513 333.0 56.0
514 282.0 496.0
515 412.0 108.0
516 542.0 598.0
517 469.0 288.0
518 618.0 575.0
519 617.0 233.0
520 463.0 255.0
521 587.0 81.0
522 609.0 51.0
523 554.0 94.0
524 307.0 394.0
525 387.0 733.0
526 186.0 398.0
527 675.0 282.0
528 474.0 244.0
529 203.0 448.0
530 502.0 329.0
531 469.0 785.0
532 820.0 460.0
533 651.0 401.0
534 810.0 648.0
535 164.0 465.0
536 516.0 455.0
537 450.0 516.0
538 813.0 657.0
539 769.0 4.0
540 672.0 792.0
541 431.0 503.0
542 743.0 655.0
543 750.0 12.0
544 717.0 134.0
545 59.0 167.0
546 502.0 224.0
547 144.0 80.0
548 736.0 370.0
549 275.0 113.0
550 579.0 279.0
551 787.0 503.0
552 34.0 95.0
553 82.0 99.0
554 682.0 408.0
555 356.0 258.0
556 471.0 414.0
557 65.0 790.0
558 738.0 103.0
559 485.0 204.0
560 68.0 143.0
561 167.0 249.0
562 46.0 89.0
563 499.0 185.0
564 473.0 534.0
565 170.0 135.0
566 259.0 166.0
567 374.0 133.0
568 218.0 31.0
569 447.0 3.0
570 156.0 235.0
571 325.0 309.0
572 122.0 437.0
573 295.0 324.0
574 704.0 308.0
575 160.0 3.0
576 659.0 796.0
577 667.0 816.0
578 141.0 491.0
579 669.0 574.0
580 188.0 187.0
581 660.0 406.0
582 196.0 693.0
583 415.0 148.0
584 801.0 539.0
585 483.0 206.0
586 489.0 332.0
587 798.0 419.0
588 631.0 479.0
589 148.0 174.0
590 560.0 270.0
591 343.0 321.0
592 82.0 473.0
593 99.0 525.0
594 157.0 664.0
595 692.0 829.0
596 25.0 110.0
597 686.0 71.0
598 317.0 733.0
599 740.0 68.0
600 84.0 729.0
601 7.0 18.0
602 803.0 462.0
603 166.0 347.0
604 525.0 220.0
605 808.0 425.0
606 166.0 625.0
607 204.0 588.0
608 477.0 260.0
609 766.0 244.0
610 470.0 820.0
611 72.0 568.0
612 143.0 23.0
613 685.0 287.0
614 485.0 814.0
615 390.0 441.0
616 822.0 661.0
617 650.0 701.0
618 555.0 288.0
619 590.0 168.0
620 661.0 326.0
621 226.0 14.0
622 583.0 424.0
623 438.0 498.0
624 626.0 141.0
625 439.0 176.0
626 611.0 337.0
627 740.0 478.0
628 349.0 458.0
629 235.0 257.0
630 393.0 302.0
631 232.0 344.0
632 262.0 279.0
633 480.0 227.0
634 67.0 392.0
635 514.0 758.0
636 556.0 232.0
637 632.0 812.0
638 377.0 811.0
639 705.0 310.0
640 231.0 698.0
641 565.0 430.0
642 117.0 554.0
643 549.0 660.0
644 37.0 148.0
645 670.0 744.0
646 141.0 670.0
647 762.0 540.0
648 18.0 600.0
649 824.0 209.0
650 669.0 537.0
651 94.0 277.0
652 207.0 762.0
653 616.0 655.0
654 62.0 615.0
655 75.0 785.0
656 374.0 698.0
657 745.0 37.0
658 570.0 78.0
659 558.0 675.0
660 69.0 51.0
661 765.0 192.0
662 308.0 99.0
663 258.0 150.0
664 63.0 307.0
665 519.0 110.0
666 685.0 645.0
667 555.0 794.0
668 384.0 528.0
669 250.0 378.0
670 410.0 751.0
671 255.0 147.0
672 807.0 149.0
673 22.0 147.0
674 770.0 121.0
675 669.0 581.0
676 733.0 509.0
677 563.0 89.0
678 624.0 23.0
679 405.0 116.0
680 583.0 128.0
681 688.0 8.0
682 648.0 444.0
683 457.0 125.0
684 566.0 335.0
685 566.0 338.0
686 376.0 285.0
687 346.0 591.0
688 624.0 118.0
689 408.0 375.0
690 457.0 661.0
691 715.0 86.0
692 759.0 477.0
693 474.0 459.0
694 478.0 470.0
695 378.0 173.0
696 453.0 310.0
697 68.0 463.0
698 308.0 812.0
699 281.0 41.0
700 231.0 629.0
701 738.0 677.0
702 78.0 17.0
703 230.0 328.0
704 218.0 636.0
705 289.0 78.0
706 375.0 661.0
707 51.0 425.0
708 628.0 45.0
709 495.0 686.0
710 423.0 168.0
711 739.0 326.0
712 773.0 741.0
713 249.0 140.0
714 825.0 356.0
715 620.0 273.0
716 481.0 330.0
717 98.0 532.0
718 107.0 341.0
719 22.0 646.0
720 180.0 797.0
721 46.0 21.0
722 364.0 541.0
723 326.0 276.0
724 316.0 559.0
725 368.0 164.0
726 810.0 409.0
727 728.0 39.0
728 460.0 297.0
729 511.0 446.0
730 50.0 175.0
731 388.0 753.0
732 770.0 181.0
733 683.0 129.0
734 153.0 602.0
735 218.0 594.0
736 693.0 240.0
737 295.0 334.0
738 415.0 681.0
739 172.0 796.0
740 169.0 408.0
741 665.0 455.0
742 449.0 309.0
743 168.0 610.0
744 153.0 67.0
745 91.0 353.0
746 703.0 130.0
747 5.0 23.0
748 803.0 540.0
749 673.0 433.0
750 510.0 16.0
751 593.0 589.0
752 241.0 382.0
753 529.0 24.0
754 219.0 627.0
755 648.0 675.0
756 359.0 459.0
757 209.0 770.0
758 8.0 651.0
759 617.0 468.0
760 732.0 434.0
761 175.0 82.0
762 190.0 519.0
763 826.0 651.0
764 773.0 308.0
765 377.0 828.0
766 55.0 64.0
767 211.0 638.0
768 665.0 794.0
769 169.0 190.0
770 603.0 496.0
771 537.0 80.0
772 508.0 96.0
773 827.0 145.0
774 303.0 125.0
775 433.0 484.0
776 33.0 671.0
777 573.0 158.0
778 503.0 129.0
779 547.0 226.0
780 773.0 403.0
781 499.0 464.0
782 283.0 67.0
783 780.0 766.0
784 355.0 308.0
785 204.0 125.0
786 1.0 384.0
787 660.0 468.0
788 135.0 634.0
789 779.0 778.0
790 184.0 240.0
791 157.0 511.0
792 493.0 442.0
793 124.0 474.0
794 431.0 607.0
795 308.0 370.0
796 349.0 418.0
797 281.0 709.0
798 717.0 826.0
799 452.0 188.0
800 314.0 505.0
801 451.0 274.0
802 823.0 58.0
803 417.0 293.0
804 764.0 516.0
805 431.0 793.0
806 471.0 573.0
807 804.0 244.0
808 750.0 74.0
809 681.0 274.0
810 123.0 273.0
811 524.0 770.0
812 347.0 443.0
813 645.0 596.0
814 6.0 773.0
815 784.0 555.0
816 812.0 500.0
817 825.0 416.0
818 756.0 340.0
819 103.0 247.0
820 512.0 802.0
821 152.0 804.0
822 200.0 41.0
823 792.0 227.0
824 165.0 218.0
825 199.0 155.0
826 67.0 215.0
827 412.0 580.0
828 393.0 414.0
829 443.0 737.0
830 669.0 628.0
EOF





